language Essence 1.3
letting nnodes be 90
letting nrings be 67
letting capacity be 50
letting demand be 
{{1, 2},
{1, 3},
{1, 5},
{1, 9},
{1, 11},
{1, 12},
{1, 13},
{1, 14},
{1, 15},
{1, 16},
{1, 17},
{1, 19},
{1, 22},
{1, 24},
{1, 25},
{1, 27},
{1, 28},
{1, 29},
{1, 30},
{1, 31},
{1, 33},
{1, 38},
{1, 39},
{1, 42},
{1, 43},
{1, 45},
{1, 47},
{1, 49},
{1, 50},
{1, 53},
{1, 57},
{1, 60},
{1, 62},
{1, 63},
{1, 64},
{1, 66},
{1, 67},
{1, 69},
{1, 70},
{1, 73},
{1, 74},
{1, 75},
{1, 77},
{1, 80},
{1, 81},
{1, 82},
{1, 83},
{1, 85},
{1, 86},
{2, 6},
{2, 7},
{2, 8},
{2, 10},
{2, 14},
{2, 20},
{2, 21},
{2, 23},
{2, 27},
{2, 28},
{2, 32},
{2, 34},
{2, 35},
{2, 36},
{2, 38},
{2, 39},
{2, 42},
{2, 43},
{2, 45},
{2, 48},
{2, 50},
{2, 51},
{2, 53},
{2, 54},
{2, 57},
{2, 59},
{2, 62},
{2, 66},
{2, 69},
{2, 71},
{2, 72},
{2, 74},
{2, 75},
{2, 76},
{2, 77},
{2, 79},
{2, 82},
{2, 85},
{2, 86},
{2, 87},
{2, 88},
{2, 89},
{3, 8},
{3, 13},
{3, 14},
{3, 15},
{3, 17},
{3, 22},
{3, 27},
{3, 30},
{3, 33},
{3, 34},
{3, 37},
{3, 38},
{3, 39},
{3, 40},
{3, 44},
{3, 45},
{3, 47},
{3, 48},
{3, 49},
{3, 53},
{3, 58},
{3, 59},
{3, 61},
{3, 64},
{3, 67},
{3, 72},
{3, 73},
{3, 74},
{3, 75},
{3, 82},
{3, 85},
{3, 87},
{3, 88},
{3, 90},
{4, 5},
{4, 13},
{4, 16},
{4, 17},
{4, 18},
{4, 19},
{4, 21},
{4, 22},
{4, 23},
{4, 25},
{4, 26},
{4, 29},
{4, 31},
{4, 33},
{4, 35},
{4, 36},
{4, 39},
{4, 41},
{4, 43},
{4, 46},
{4, 48},
{4, 49},
{4, 52},
{4, 53},
{4, 54},
{4, 57},
{4, 59},
{4, 61},
{4, 62},
{4, 66},
{4, 68},
{4, 72},
{4, 73},
{4, 74},
{4, 75},
{4, 76},
{4, 77},
{4, 78},
{4, 79},
{4, 80},
{4, 81},
{4, 82},
{4, 83},
{4, 85},
{4, 86},
{4, 89},
{5, 6},
{5, 7},
{5, 9},
{5, 11},
{5, 12},
{5, 15},
{5, 17},
{5, 19},
{5, 20},
{5, 21},
{5, 30},
{5, 31},
{5, 33},
{5, 34},
{5, 37},
{5, 42},
{5, 45},
{5, 47},
{5, 56},
{5, 58},
{5, 61},
{5, 63},
{5, 65},
{5, 66},
{5, 69},
{5, 72},
{5, 73},
{5, 74},
{5, 75},
{5, 76},
{5, 78},
{5, 80},
{5, 81},
{5, 83},
{5, 85},
{5, 86},
{5, 89},
{6, 8},
{6, 9},
{6, 13},
{6, 15},
{6, 16},
{6, 18},
{6, 20},
{6, 21},
{6, 24},
{6, 33},
{6, 35},
{6, 36},
{6, 39},
{6, 41},
{6, 43},
{6, 44},
{6, 45},
{6, 49},
{6, 51},
{6, 52},
{6, 54},
{6, 55},
{6, 60},
{6, 61},
{6, 62},
{6, 63},
{6, 67},
{6, 70},
{6, 73},
{6, 74},
{6, 77},
{6, 78},
{6, 79},
{6, 80},
{6, 82},
{6, 83},
{6, 85},
{6, 88},
{6, 90},
{7, 9},
{7, 12},
{7, 13},
{7, 14},
{7, 15},
{7, 16},
{7, 17},
{7, 18},
{7, 21},
{7, 23},
{7, 24},
{7, 25},
{7, 26},
{7, 27},
{7, 28},
{7, 35},
{7, 36},
{7, 37},
{7, 38},
{7, 40},
{7, 42},
{7, 43},
{7, 44},
{7, 45},
{7, 46},
{7, 48},
{7, 50},
{7, 51},
{7, 52},
{7, 55},
{7, 57},
{7, 58},
{7, 59},
{7, 61},
{7, 65},
{7, 72},
{7, 73},
{7, 75},
{7, 78},
{7, 80},
{7, 81},
{7, 84},
{7, 90},
{8, 10},
{8, 11},
{8, 17},
{8, 18},
{8, 19},
{8, 20},
{8, 22},
{8, 24},
{8, 27},
{8, 28},
{8, 29},
{8, 30},
{8, 31},
{8, 33},
{8, 34},
{8, 36},
{8, 38},
{8, 39},
{8, 43},
{8, 50},
{8, 52},
{8, 53},
{8, 54},
{8, 55},
{8, 56},
{8, 57},
{8, 58},
{8, 61},
{8, 64},
{8, 66},
{8, 67},
{8, 69},
{8, 72},
{8, 74},
{8, 76},
{8, 79},
{8, 81},
{8, 82},
{8, 87},
{8, 89},
{9, 13},
{9, 14},
{9, 18},
{9, 24},
{9, 26},
{9, 27},
{9, 28},
{9, 29},
{9, 30},
{9, 32},
{9, 33},
{9, 36},
{9, 38},
{9, 40},
{9, 41},
{9, 43},
{9, 44},
{9, 47},
{9, 48},
{9, 54},
{9, 55},
{9, 56},
{9, 58},
{9, 60},
{9, 62},
{9, 66},
{9, 67},
{9, 68},
{9, 69},
{9, 71},
{9, 75},
{9, 76},
{9, 77},
{9, 82},
{9, 83},
{9, 84},
{9, 86},
{9, 88},
{9, 89},
{9, 90},
{10, 18},
{10, 19},
{10, 20},
{10, 23},
{10, 24},
{10, 26},
{10, 27},
{10, 28},
{10, 32},
{10, 33},
{10, 35},
{10, 38},
{10, 41},
{10, 42},
{10, 49},
{10, 50},
{10, 54},
{10, 56},
{10, 60},
{10, 63},
{10, 64},
{10, 67},
{10, 68},
{10, 69},
{10, 70},
{10, 71},
{10, 72},
{10, 73},
{10, 74},
{10, 75},
{10, 76},
{10, 77},
{10, 78},
{10, 79},
{10, 83},
{10, 84},
{10, 86},
{10, 87},
{10, 88},
{10, 89},
{11, 13},
{11, 14},
{11, 17},
{11, 19},
{11, 20},
{11, 21},
{11, 23},
{11, 24},
{11, 25},
{11, 26},
{11, 27},
{11, 28},
{11, 29},
{11, 30},
{11, 33},
{11, 34},
{11, 35},
{11, 37},
{11, 38},
{11, 39},
{11, 40},
{11, 43},
{11, 46},
{11, 48},
{11, 55},
{11, 56},
{11, 58},
{11, 59},
{11, 60},
{11, 61},
{11, 62},
{11, 63},
{11, 64},
{11, 70},
{11, 72},
{11, 75},
{11, 76},
{11, 77},
{11, 78},
{11, 80},
{11, 81},
{11, 82},
{11, 86},
{11, 88},
{12, 13},
{12, 14},
{12, 17},
{12, 19},
{12, 20},
{12, 21},
{12, 23},
{12, 25},
{12, 28},
{12, 29},
{12, 34},
{12, 35},
{12, 38},
{12, 39},
{12, 41},
{12, 42},
{12, 43},
{12, 44},
{12, 45},
{12, 47},
{12, 49},
{12, 61},
{12, 62},
{12, 64},
{12, 68},
{12, 69},
{12, 70},
{12, 72},
{12, 75},
{12, 76},
{12, 77},
{12, 78},
{12, 81},
{12, 82},
{12, 83},
{12, 85},
{12, 87},
{12, 90},
{13, 14},
{13, 16},
{13, 17},
{13, 18},
{13, 21},
{13, 23},
{13, 24},
{13, 26},
{13, 27},
{13, 29},
{13, 31},
{13, 32},
{13, 34},
{13, 35},
{13, 37},
{13, 38},
{13, 39},
{13, 40},
{13, 41},
{13, 43},
{13, 44},
{13, 47},
{13, 48},
{13, 51},
{13, 53},
{13, 56},
{13, 58},
{13, 64},
{13, 67},
{13, 70},
{13, 71},
{13, 72},
{13, 73},
{13, 74},
{13, 76},
{13, 78},
{13, 79},
{13, 81},
{13, 82},
{13, 83},
{13, 85},
{13, 86},
{13, 88},
{14, 15},
{14, 18},
{14, 21},
{14, 24},
{14, 26},
{14, 27},
{14, 28},
{14, 31},
{14, 33},
{14, 35},
{14, 36},
{14, 37},
{14, 39},
{14, 41},
{14, 44},
{14, 45},
{14, 46},
{14, 49},
{14, 50},
{14, 53},
{14, 55},
{14, 59},
{14, 61},
{14, 62},
{14, 64},
{14, 72},
{14, 73},
{14, 77},
{14, 84},
{14, 87},
{14, 90},
{15, 16},
{15, 17},
{15, 18},
{15, 21},
{15, 22},
{15, 23},
{15, 29},
{15, 33},
{15, 35},
{15, 37},
{15, 39},
{15, 44},
{15, 45},
{15, 48},
{15, 56},
{15, 58},
{15, 59},
{15, 60},
{15, 63},
{15, 65},
{15, 66},
{15, 67},
{15, 68},
{15, 69},
{15, 70},
{15, 71},
{15, 72},
{15, 74},
{15, 75},
{15, 77},
{15, 81},
{15, 83},
{15, 88},
{16, 17},
{16, 21},
{16, 23},
{16, 24},
{16, 26},
{16, 27},
{16, 28},
{16, 31},
{16, 33},
{16, 36},
{16, 41},
{16, 42},
{16, 43},
{16, 44},
{16, 48},
{16, 49},
{16, 51},
{16, 52},
{16, 53},
{16, 56},
{16, 57},
{16, 59},
{16, 60},
{16, 61},
{16, 64},
{16, 66},
{16, 67},
{16, 69},
{16, 70},
{16, 71},
{16, 72},
{16, 74},
{16, 76},
{16, 81},
{16, 82},
{16, 85},
{16, 86},
{16, 87},
{16, 88},
{16, 89},
{17, 18},
{17, 22},
{17, 23},
{17, 24},
{17, 25},
{17, 26},
{17, 29},
{17, 30},
{17, 31},
{17, 32},
{17, 33},
{17, 35},
{17, 38},
{17, 39},
{17, 40},
{17, 41},
{17, 42},
{17, 45},
{17, 47},
{17, 48},
{17, 49},
{17, 51},
{17, 55},
{17, 57},
{17, 58},
{17, 61},
{17, 62},
{17, 64},
{17, 66},
{17, 67},
{17, 70},
{17, 72},
{17, 73},
{17, 74},
{17, 76},
{17, 79},
{17, 80},
{17, 81},
{17, 82},
{17, 86},
{18, 21},
{18, 24},
{18, 25},
{18, 26},
{18, 30},
{18, 31},
{18, 33},
{18, 38},
{18, 40},
{18, 41},
{18, 43},
{18, 45},
{18, 46},
{18, 50},
{18, 51},
{18, 52},
{18, 57},
{18, 59},
{18, 60},
{18, 62},
{18, 66},
{18, 67},
{18, 68},
{18, 69},
{18, 71},
{18, 75},
{18, 76},
{18, 79},
{18, 82},
{18, 84},
{18, 85},
{18, 86},
{18, 87},
{18, 88},
{19, 21},
{19, 22},
{19, 23},
{19, 29},
{19, 32},
{19, 33},
{19, 35},
{19, 38},
{19, 39},
{19, 40},
{19, 41},
{19, 43},
{19, 44},
{19, 46},
{19, 61},
{19, 62},
{19, 65},
{19, 69},
{19, 71},
{19, 72},
{19, 75},
{19, 77},
{19, 80},
{19, 82},
{19, 83},
{19, 87},
{19, 88},
{19, 90},
{20, 21},
{20, 23},
{20, 25},
{20, 26},
{20, 27},
{20, 28},
{20, 29},
{20, 30},
{20, 33},
{20, 35},
{20, 39},
{20, 41},
{20, 42},
{20, 44},
{20, 48},
{20, 49},
{20, 50},
{20, 56},
{20, 57},
{20, 58},
{20, 66},
{20, 67},
{20, 68},
{20, 69},
{20, 72},
{20, 74},
{20, 75},
{20, 78},
{20, 79},
{20, 80},
{20, 81},
{20, 84},
{20, 85},
{20, 87},
{20, 88},
{20, 89},
{21, 22},
{21, 23},
{21, 27},
{21, 29},
{21, 30},
{21, 32},
{21, 33},
{21, 34},
{21, 35},
{21, 36},
{21, 40},
{21, 43},
{21, 44},
{21, 45},
{21, 47},
{21, 48},
{21, 53},
{21, 54},
{21, 55},
{21, 56},
{21, 57},
{21, 58},
{21, 60},
{21, 62},
{21, 65},
{21, 70},
{21, 71},
{21, 73},
{21, 74},
{21, 75},
{21, 77},
{21, 79},
{21, 81},
{21, 85},
{21, 87},
{21, 89},
{22, 23},
{22, 25},
{22, 26},
{22, 30},
{22, 31},
{22, 32},
{22, 33},
{22, 34},
{22, 37},
{22, 39},
{22, 40},
{22, 41},
{22, 43},
{22, 44},
{22, 48},
{22, 54},
{22, 55},
{22, 57},
{22, 59},
{22, 60},
{22, 61},
{22, 62},
{22, 64},
{22, 66},
{22, 67},
{22, 72},
{22, 73},
{22, 80},
{22, 81},
{22, 83},
{22, 86},
{22, 88},
{23, 24},
{23, 25},
{23, 29},
{23, 30},
{23, 31},
{23, 33},
{23, 34},
{23, 39},
{23, 40},
{23, 44},
{23, 46},
{23, 47},
{23, 49},
{23, 51},
{23, 52},
{23, 53},
{23, 55},
{23, 57},
{23, 58},
{23, 59},
{23, 60},
{23, 61},
{23, 64},
{23, 68},
{23, 69},
{23, 72},
{23, 73},
{23, 74},
{23, 76},
{23, 80},
{23, 81},
{23, 86},
{23, 89},
{23, 90},
{24, 25},
{24, 26},
{24, 35},
{24, 37},
{24, 40},
{24, 41},
{24, 42},
{24, 45},
{24, 49},
{24, 51},
{24, 52},
{24, 53},
{24, 55},
{24, 58},
{24, 60},
{24, 61},
{24, 62},
{24, 64},
{24, 65},
{24, 67},
{24, 74},
{24, 75},
{24, 76},
{24, 77},
{24, 79},
{24, 81},
{24, 82},
{24, 83},
{24, 86},
{24, 90},
{25, 27},
{25, 30},
{25, 31},
{25, 32},
{25, 34},
{25, 35},
{25, 38},
{25, 39},
{25, 41},
{25, 43},
{25, 54},
{25, 56},
{25, 59},
{25, 60},
{25, 63},
{25, 65},
{25, 66},
{25, 67},
{25, 71},
{25, 72},
{25, 73},
{25, 75},
{25, 76},
{25, 77},
{25, 80},
{25, 81},
{25, 84},
{25, 87},
{25, 89},
{26, 32},
{26, 35},
{26, 36},
{26, 38},
{26, 39},
{26, 40},
{26, 41},
{26, 43},
{26, 49},
{26, 50},
{26, 51},
{26, 53},
{26, 56},
{26, 59},
{26, 60},
{26, 61},
{26, 64},
{26, 66},
{26, 70},
{26, 73},
{26, 74},
{26, 75},
{26, 76},
{26, 77},
{26, 79},
{26, 82},
{26, 83},
{26, 84},
{27, 28},
{27, 29},
{27, 31},
{27, 32},
{27, 36},
{27, 37},
{27, 44},
{27, 45},
{27, 48},
{27, 50},
{27, 52},
{27, 55},
{27, 57},
{27, 59},
{27, 60},
{27, 63},
{27, 65},
{27, 66},
{27, 67},
{27, 70},
{27, 73},
{27, 74},
{27, 78},
{27, 83},
{27, 84},
{27, 86},
{27, 87},
{27, 90},
{28, 29},
{28, 31},
{28, 32},
{28, 34},
{28, 35},
{28, 39},
{28, 40},
{28, 41},
{28, 42},
{28, 44},
{28, 45},
{28, 46},
{28, 47},
{28, 49},
{28, 51},
{28, 53},
{28, 54},
{28, 55},
{28, 56},
{28, 57},
{28, 59},
{28, 60},
{28, 62},
{28, 63},
{28, 64},
{28, 65},
{28, 66},
{28, 69},
{28, 72},
{28, 73},
{28, 74},
{28, 76},
{28, 81},
{28, 83},
{28, 84},
{28, 87},
{29, 30},
{29, 31},
{29, 35},
{29, 36},
{29, 39},
{29, 45},
{29, 47},
{29, 48},
{29, 49},
{29, 52},
{29, 53},
{29, 54},
{29, 55},
{29, 57},
{29, 61},
{29, 62},
{29, 69},
{29, 72},
{29, 73},
{29, 74},
{29, 76},
{29, 82},
{30, 40},
{30, 41},
{30, 44},
{30, 45},
{30, 46},
{30, 49},
{30, 52},
{30, 54},
{30, 55},
{30, 56},
{30, 59},
{30, 60},
{30, 64},
{30, 66},
{30, 70},
{30, 75},
{30, 76},
{30, 77},
{30, 82},
{30, 83},
{30, 89},
{30, 90},
{31, 34},
{31, 36},
{31, 37},
{31, 39},
{31, 42},
{31, 43},
{31, 46},
{31, 54},
{31, 56},
{31, 57},
{31, 58},
{31, 62},
{31, 63},
{31, 64},
{31, 65},
{31, 69},
{31, 70},
{31, 72},
{31, 73},
{31, 74},
{31, 76},
{31, 77},
{31, 79},
{31, 81},
{31, 83},
{31, 86},
{31, 88},
{31, 89},
{32, 33},
{32, 34},
{32, 37},
{32, 38},
{32, 41},
{32, 43},
{32, 47},
{32, 48},
{32, 49},
{32, 55},
{32, 57},
{32, 58},
{32, 60},
{32, 63},
{32, 66},
{32, 67},
{32, 71},
{32, 72},
{32, 76},
{32, 78},
{32, 79},
{32, 80},
{32, 83},
{32, 86},
{32, 89},
{33, 36},
{33, 37},
{33, 38},
{33, 39},
{33, 40},
{33, 42},
{33, 46},
{33, 47},
{33, 48},
{33, 50},
{33, 51},
{33, 53},
{33, 54},
{33, 55},
{33, 58},
{33, 59},
{33, 60},
{33, 61},
{33, 65},
{33, 66},
{33, 67},
{33, 73},
{33, 74},
{33, 76},
{33, 78},
{33, 80},
{33, 83},
{33, 84},
{33, 87},
{33, 88},
{34, 36},
{34, 37},
{34, 39},
{34, 42},
{34, 43},
{34, 44},
{34, 45},
{34, 46},
{34, 47},
{34, 50},
{34, 52},
{34, 55},
{34, 57},
{34, 58},
{34, 60},
{34, 63},
{34, 64},
{34, 67},
{34, 69},
{34, 70},
{34, 72},
{34, 74},
{34, 77},
{34, 78},
{34, 79},
{34, 80},
{34, 81},
{34, 82},
{34, 83},
{34, 85},
{34, 86},
{35, 36},
{35, 38},
{35, 39},
{35, 41},
{35, 43},
{35, 45},
{35, 47},
{35, 52},
{35, 55},
{35, 57},
{35, 59},
{35, 66},
{35, 68},
{35, 70},
{35, 72},
{35, 73},
{35, 75},
{35, 76},
{35, 77},
{35, 78},
{35, 81},
{35, 82},
{35, 83},
{35, 84},
{35, 86},
{35, 87},
{35, 88},
{36, 37},
{36, 38},
{36, 40},
{36, 41},
{36, 42},
{36, 45},
{36, 46},
{36, 47},
{36, 48},
{36, 49},
{36, 51},
{36, 52},
{36, 53},
{36, 62},
{36, 64},
{36, 66},
{36, 67},
{36, 68},
{36, 69},
{36, 70},
{36, 71},
{36, 72},
{36, 74},
{36, 75},
{36, 76},
{36, 77},
{36, 78},
{36, 79},
{36, 81},
{36, 82},
{36, 83},
{36, 84},
{36, 85},
{36, 86},
{36, 89},
{37, 39},
{37, 43},
{37, 45},
{37, 46},
{37, 47},
{37, 48},
{37, 52},
{37, 54},
{37, 56},
{37, 57},
{37, 58},
{37, 59},
{37, 60},
{37, 62},
{37, 64},
{37, 66},
{37, 67},
{37, 68},
{37, 69},
{37, 70},
{37, 72},
{37, 77},
{37, 81},
{37, 82},
{37, 85},
{37, 88},
{38, 39},
{38, 40},
{38, 41},
{38, 42},
{38, 44},
{38, 47},
{38, 50},
{38, 51},
{38, 54},
{38, 55},
{38, 57},
{38, 58},
{38, 59},
{38, 61},
{38, 62},
{38, 63},
{38, 64},
{38, 65},
{38, 75},
{38, 76},
{38, 77},
{38, 78},
{38, 82},
{38, 85},
{38, 87},
{38, 88},
{38, 89},
{39, 40},
{39, 41},
{39, 42},
{39, 48},
{39, 50},
{39, 51},
{39, 52},
{39, 55},
{39, 56},
{39, 61},
{39, 62},
{39, 64},
{39, 66},
{39, 68},
{39, 69},
{39, 71},
{39, 73},
{39, 75},
{39, 77},
{39, 78},
{39, 79},
{39, 80},
{39, 81},
{39, 84},
{39, 86},
{39, 87},
{39, 88},
{39, 89},
{40, 41},
{40, 43},
{40, 44},
{40, 45},
{40, 48},
{40, 49},
{40, 52},
{40, 55},
{40, 58},
{40, 59},
{40, 65},
{40, 69},
{40, 71},
{40, 72},
{40, 73},
{40, 75},
{40, 77},
{40, 78},
{40, 80},
{40, 81},
{40, 83},
{40, 84},
{40, 86},
{40, 89},
{40, 90},
{41, 45},
{41, 46},
{41, 47},
{41, 49},
{41, 51},
{41, 52},
{41, 55},
{41, 59},
{41, 62},
{41, 64},
{41, 66},
{41, 67},
{41, 74},
{41, 75},
{41, 79},
{41, 80},
{41, 81},
{41, 82},
{41, 84},
{41, 85},
{41, 86},
{41, 88},
{41, 89},
{41, 90},
{42, 43},
{42, 44},
{42, 45},
{42, 47},
{42, 48},
{42, 52},
{42, 56},
{42, 60},
{42, 61},
{42, 63},
{42, 64},
{42, 65},
{42, 66},
{42, 67},
{42, 68},
{42, 69},
{42, 70},
{42, 71},
{42, 73},
{42, 74},
{42, 75},
{42, 77},
{42, 78},
{42, 80},
{42, 81},
{42, 82},
{42, 84},
{42, 85},
{42, 86},
{42, 87},
{42, 88},
{42, 89},
{43, 44},
{43, 45},
{43, 46},
{43, 48},
{43, 49},
{43, 52},
{43, 57},
{43, 58},
{43, 62},
{43, 63},
{43, 64},
{43, 67},
{43, 73},
{43, 75},
{43, 76},
{43, 77},
{43, 78},
{43, 80},
{43, 82},
{43, 86},
{43, 88},
{44, 46},
{44, 47},
{44, 50},
{44, 51},
{44, 53},
{44, 60},
{44, 61},
{44, 65},
{44, 69},
{44, 70},
{44, 72},
{44, 73},
{44, 74},
{44, 75},
{44, 76},
{44, 77},
{44, 78},
{44, 80},
{44, 81},
{44, 82},
{44, 85},
{44, 87},
{44, 88},
{45, 46},
{45, 47},
{45, 48},
{45, 50},
{45, 51},
{45, 54},
{45, 55},
{45, 57},
{45, 60},
{45, 61},
{45, 62},
{45, 63},
{45, 66},
{45, 67},
{45, 70},
{45, 71},
{45, 74},
{45, 78},
{45, 79},
{45, 80},
{45, 81},
{45, 82},
{45, 84},
{45, 85},
{45, 86},
{45, 87},
{45, 90},
{46, 48},
{46, 49},
{46, 55},
{46, 56},
{46, 61},
{46, 63},
{46, 69},
{46, 70},
{46, 72},
{46, 73},
{46, 74},
{46, 79},
{46, 82},
{46, 84},
{46, 85},
{46, 86},
{46, 90},
{47, 48},
{47, 49},
{47, 55},
{47, 61},
{47, 62},
{47, 63},
{47, 66},
{47, 67},
{47, 68},
{47, 70},
{47, 73},
{47, 75},
{47, 77},
{47, 78},
{47, 81},
{47, 82},
{47, 86},
{47, 89},
{48, 49},
{48, 51},
{48, 52},
{48, 53},
{48, 56},
{48, 57},
{48, 59},
{48, 61},
{48, 62},
{48, 63},
{48, 65},
{48, 66},
{48, 68},
{48, 69},
{48, 70},
{48, 73},
{48, 74},
{48, 75},
{48, 76},
{48, 77},
{48, 78},
{48, 81},
{48, 82},
{48, 83},
{48, 85},
{48, 87},
{48, 88},
{48, 89},
{49, 50},
{49, 55},
{49, 59},
{49, 61},
{49, 65},
{49, 66},
{49, 68},
{49, 71},
{49, 72},
{49, 75},
{49, 78},
{49, 82},
{49, 83},
{49, 84},
{49, 87},
{49, 90},
{50, 53},
{50, 55},
{50, 56},
{50, 57},
{50, 58},
{50, 69},
{50, 70},
{50, 71},
{50, 77},
{50, 81},
{50, 82},
{50, 85},
{50, 88},
{50, 89},
{51, 54},
{51, 56},
{51, 57},
{51, 62},
{51, 64},
{51, 68},
{51, 69},
{51, 70},
{51, 73},
{51, 74},
{51, 76},
{51, 78},
{51, 79},
{51, 80},
{51, 82},
{51, 83},
{51, 84},
{51, 85},
{51, 89},
{52, 54},
{52, 56},
{52, 60},
{52, 63},
{52, 64},
{52, 66},
{52, 67},
{52, 68},
{52, 69},
{52, 70},
{52, 72},
{52, 73},
{52, 75},
{52, 76},
{52, 80},
{52, 81},
{52, 82},
{52, 83},
{52, 84},
{52, 85},
{52, 87},
{52, 89},
{53, 56},
{53, 57},
{53, 58},
{53, 59},
{53, 68},
{53, 71},
{53, 72},
{53, 73},
{53, 74},
{53, 76},
{53, 79},
{53, 80},
{53, 81},
{53, 85},
{53, 86},
{53, 87},
{53, 89},
{54, 57},
{54, 59},
{54, 62},
{54, 66},
{54, 68},
{54, 69},
{54, 70},
{54, 71},
{54, 72},
{54, 76},
{54, 78},
{54, 79},
{54, 80},
{54, 81},
{54, 83},
{54, 84},
{54, 85},
{54, 86},
{54, 87},
{54, 88},
{54, 90},
{55, 57},
{55, 58},
{55, 59},
{55, 60},
{55, 63},
{55, 64},
{55, 66},
{55, 67},
{55, 69},
{55, 70},
{55, 71},
{55, 72},
{55, 77},
{55, 86},
{55, 87},
{55, 88},
{55, 90},
{56, 58},
{56, 59},
{56, 63},
{56, 66},
{56, 72},
{56, 74},
{56, 77},
{56, 80},
{56, 81},
{56, 84},
{56, 85},
{56, 86},
{56, 87},
{56, 88},
{56, 89},
{56, 90},
{57, 59},
{57, 61},
{57, 62},
{57, 63},
{57, 68},
{57, 71},
{57, 72},
{57, 73},
{57, 75},
{57, 76},
{57, 77},
{57, 78},
{57, 80},
{57, 82},
{57, 83},
{57, 85},
{57, 86},
{57, 87},
{57, 88},
{58, 60},
{58, 61},
{58, 62},
{58, 63},
{58, 64},
{58, 69},
{58, 70},
{58, 71},
{58, 72},
{58, 74},
{58, 76},
{58, 77},
{58, 79},
{58, 80},
{58, 82},
{58, 83},
{58, 84},
{58, 85},
{58, 89},
{58, 90},
{59, 61},
{59, 62},
{59, 63},
{59, 64},
{59, 65},
{59, 67},
{59, 70},
{59, 72},
{59, 73},
{59, 75},
{59, 77},
{59, 80},
{59, 81},
{59, 84},
{59, 85},
{59, 88},
{59, 89},
{59, 90},
{60, 61},
{60, 63},
{60, 64},
{60, 65},
{60, 66},
{60, 67},
{60, 68},
{60, 69},
{60, 70},
{60, 71},
{60, 73},
{60, 75},
{60, 76},
{60, 78},
{60, 80},
{60, 81},
{60, 82},
{60, 84},
{60, 86},
{60, 88},
{60, 89},
{61, 64},
{61, 67},
{61, 68},
{61, 69},
{61, 70},
{61, 80},
{61, 84},
{61, 86},
{61, 89},
{61, 90},
{62, 63},
{62, 66},
{62, 69},
{62, 70},
{62, 72},
{62, 73},
{62, 74},
{62, 75},
{62, 77},
{62, 78},
{62, 79},
{62, 81},
{62, 83},
{62, 84},
{62, 85},
{62, 86},
{63, 64},
{63, 65},
{63, 70},
{63, 72},
{63, 73},
{63, 75},
{63, 76},
{63, 78},
{63, 81},
{63, 83},
{63, 85},
{63, 87},
{64, 66},
{64, 69},
{64, 72},
{64, 74},
{64, 76},
{64, 78},
{64, 79},
{64, 82},
{64, 83},
{64, 85},
{64, 89},
{65, 68},
{65, 70},
{65, 71},
{65, 72},
{65, 74},
{65, 76},
{65, 77},
{65, 83},
{65, 88},
{66, 67},
{66, 69},
{66, 70},
{66, 71},
{66, 72},
{66, 73},
{66, 74},
{66, 81},
{66, 82},
{66, 83},
{66, 87},
{66, 88},
{66, 90},
{67, 69},
{67, 74},
{67, 75},
{67, 82},
{67, 86},
{67, 90},
{68, 69},
{68, 71},
{68, 73},
{68, 74},
{68, 75},
{68, 78},
{68, 79},
{68, 84},
{69, 72},
{69, 74},
{69, 75},
{69, 77},
{69, 78},
{69, 79},
{69, 81},
{69, 84},
{69, 85},
{69, 89},
{70, 74},
{70, 77},
{70, 81},
{70, 82},
{70, 83},
{70, 84},
{70, 86},
{70, 88},
{70, 89},
{71, 73},
{71, 74},
{71, 77},
{71, 79},
{71, 80},
{71, 83},
{71, 84},
{71, 85},
{71, 89},
{71, 90},
{72, 74},
{72, 75},
{72, 77},
{72, 79},
{72, 81},
{72, 83},
{72, 84},
{72, 86},
{72, 87},
{72, 88},
{72, 90},
{73, 74},
{73, 75},
{73, 78},
{73, 79},
{73, 81},
{73, 82},
{73, 84},
{73, 86},
{73, 88},
{73, 89},
{73, 90},
{74, 75},
{74, 76},
{74, 78},
{74, 79},
{74, 82},
{74, 83},
{74, 86},
{74, 87},
{75, 77},
{75, 79},
{75, 80},
{75, 87},
{76, 79},
{76, 80},
{76, 81},
{76, 84},
{76, 85},
{76, 86},
{76, 87},
{76, 90},
{77, 80},
{77, 83},
{77, 84},
{77, 86},
{77, 88},
{78, 79},
{78, 81},
{78, 82},
{78, 85},
{78, 86},
{78, 87},
{78, 89},
{79, 81},
{79, 87},
{79, 89},
{79, 90},
{80, 82},
{80, 83},
{80, 84},
{80, 86},
{80, 89},
{81, 82},
{81, 83},
{81, 86},
{81, 87},
{81, 88},
{81, 90},
{82, 83},
{82, 84},
{82, 86},
{82, 87},
{82, 88},
{83, 84},
{83, 86},
{83, 89},
{84, 88},
{84, 89},
{85, 89},
{85, 90},
{86, 88},
{86, 89},
{86, 90},
{87, 88},
{87, 90},
{88, 89},
{88, 90}}
